\ENCODING=ISO-8859-1
\Problem name: IloCplex

Minimize
 obj1: 1.15723271923579 x1 - 0.157232719235791 x2 + 1.15723271923579 x3
       - 0.157232719235791 x4 + 2
Subject To
 c1:  x2 >= 4
 c2:  x4 >= 5.26
 c3:  x1 - x2 >= 3.1799997
 c4:  x1 - x2 <= 10.599999
 c5:  x3 - x4 >= 3.1799997
 c6:  x3 - x4 <= 10.599999
 c7:  - 9.6 x1 - 22.199997 x2 + 31.799997 x5  = 0
 c8:  - 12.6 x1 - 19.199997 x2 + 31.799997 x6  = 0
 c9:  - 15.172311 x1 - 16.627686 x2 + 31.799997 x7  = 0
 c10: - 16.627686 x1 - 15.172311 x2 + 31.799997 x8  = 0
 c11: - 19.199997 x1 - 12.6 x2 + 31.799997 x9  = 0
 c12: - 22.199997 x1 - 9.6 x2 + 31.799997 x10  = 0
 c13: - 9.6 x3 - 22.199997 x4 + 31.799997 x11  = 0
 c14: - 12.6 x3 - 19.199997 x4 + 31.799997 x12  = 0
 c15: - 15.172311 x3 - 16.627686 x4 + 31.799997 x13  = 0
 c16: - 16.627686 x3 - 15.172311 x4 + 31.799997 x14  = 0
 c17: - 19.199997 x3 - 12.6 x4 + 31.799997 x15  = 0
 c18: - 22.199997 x3 - 9.6 x4 + 31.799997 x16  = 0
 c19: 0.157232719235791 x1 - 0.157232719235791 x2 + x10 - x11 + 10000 x17
      <= 9999
 c20: 0.157232719235791 x3 - 0.157232719235791 x4 - x10 + x11 + 10000 x18
      <= 9999
 c21: x17 + x18  = 1
Bounds
 0 <= x1 <= 1000000
 0 <= x2 <= 1000000
 0 <= x3 <= 1000000
 0 <= x4 <= 1000000
 0 <= x5 <= 1000000
 0 <= x6 <= 1000000
 0 <= x7 <= 1000000
 0 <= x8 <= 1000000
 0 <= x9 <= 1000000
 0 <= x10 <= 1000000
 0 <= x11 <= 1000000
 0 <= x12 <= 1000000
 0 <= x13 <= 1000000
 0 <= x14 <= 1000000
 0 <= x15 <= 1000000
 0 <= x16 <= 1000000
 0 <= x17 <= 1
 0 <= x18 <= 1
Binaries
 x17  x18 
End
